c Reduced graph for p36 generated by Cyril Grelier
p edge 101 798
e 1 2
e 1 3
e 1 5
e 1 7
e 1 11
e 1 17
e 1 19
e 1 25
e 1 27
e 1 50
e 1 51
e 1 75
e 1 78
e 1 79
e 1 81
e 1 82
e 2 10
e 2 14
e 2 16
e 2 23
e 2 28
e 2 32
e 2 50
e 2 51
e 2 75
e 2 78
e 2 79
e 2 81
e 2 82
e 3 4
e 3 5
e 3 7
e 3 11
e 3 17
e 3 19
e 3 23
e 3 25
e 3 27
e 3 46
e 3 54
e 3 57
e 3 71
e 3 72
e 3 73
e 3 74
e 3 88
e 3 89
e 4 22
e 4 23
e 4 36
e 4 38
e 4 46
e 4 48
e 4 49
e 4 54
e 4 57
e 4 67
e 4 71
e 4 72
e 4 73
e 4 74
e 4 88
e 4 89
e 5 6
e 5 7
e 5 11
e 5 17
e 5 19
e 5 21
e 5 22
e 5 25
e 5 27
e 5 39
e 5 40
e 5 44
e 5 77
e 5 96
e 5 97
e 6 21
e 6 22
e 6 39
e 6 40
e 6 43
e 6 44
e 6 46
e 6 53
e 6 59
e 6 68
e 6 77
e 6 96
e 6 97
e 7 8
e 7 9
e 7 10
e 7 11
e 7 17
e 7 19
e 7 25
e 7 27
e 7 34
e 7 36
e 7 56
e 7 58
e 7 65
e 7 98
e 8 9
e 8 10
e 8 30
e 8 34
e 8 36
e 8 56
e 8 58
e 8 61
e 8 65
e 8 77
e 8 81
e 8 84
e 8 89
e 8 91
e 8 98
e 9 10
e 9 21
e 9 33
e 9 34
e 9 36
e 9 42
e 9 56
e 9 58
e 9 60
e 9 63
e 9 65
e 9 74
e 9 93
e 9 95
e 9 98
e 10 14
e 10 16
e 10 23
e 10 28
e 10 32
e 10 34
e 10 36
e 10 56
e 10 58
e 10 65
e 10 98
e 11 12
e 11 17
e 11 19
e 11 25
e 11 27
e 11 31
e 11 32
e 11 47
e 11 49
e 11 80
e 11 92
e 12 31
e 12 32
e 12 35
e 12 47
e 12 49
e 12 57
e 12 80
e 12 82
e 12 87
e 12 92
e 12 97
e 12 98
e 13 14
e 13 18
e 13 19
e 13 20
e 13 40
e 13 41
e 13 45
e 13 47
e 13 48
e 13 54
e 13 55
e 13 65
e 13 70
e 13 78
e 13 94
e 13 95
e 14 16
e 14 19
e 14 20
e 14 23
e 14 28
e 14 32
e 14 41
e 14 45
e 14 48
e 14 94
e 14 95
e 15 16
e 15 20
e 15 24
e 15 25
e 15 29
e 15 30
e 15 33
e 15 35
e 15 37
e 15 38
e 15 55
e 15 58
e 15 59
e 15 66
e 15 72
e 15 79
e 15 83
e 15 92
e 15 101
e 16 23
e 16 24
e 16 25
e 16 28
e 16 29
e 16 30
e 16 32
e 16 33
e 16 35
e 16 37
e 16 38
e 16 55
e 16 59
e 17 18
e 17 19
e 17 25
e 17 27
e 17 60
e 17 61
e 17 64
e 17 66
e 17 67
e 17 68
e 17 76
e 18 40
e 18 47
e 18 54
e 18 55
e 18 60
e 18 61
e 18 64
e 18 65
e 18 66
e 18 67
e 18 68
e 18 70
e 18 76
e 18 78
e 19 20
e 19 25
e 19 27
e 19 41
e 19 45
e 19 48
e 19 94
e 19 95
e 20 41
e 20 45
e 20 48
e 20 58
e 20 66
e 20 72
e 20 79
e 20 83
e 20 92
e 20 94
e 20 95
e 20 101
e 21 22
e 21 33
e 21 39
e 21 40
e 21 42
e 21 44
e 21 60
e 21 63
e 21 74
e 21 77
e 21 93
e 21 95
e 21 96
e 21 97
e 22 36
e 22 38
e 22 39
e 22 40
e 22 44
e 22 48
e 22 49
e 22 67
e 22 77
e 22 96
e 22 97
e 23 28
e 23 32
e 23 46
e 23 54
e 23 57
e 23 71
e 23 72
e 23 73
e 23 74
e 23 88
e 23 89
e 24 25
e 24 29
e 24 30
e 24 33
e 24 35
e 24 37
e 24 38
e 24 39
e 24 45
e 24 55
e 24 59
e 24 62
e 24 75
e 24 76
e 24 80
e 24 86
e 24 88
e 24 99
e 25 27
e 25 29
e 25 30
e 25 33
e 25 35
e 25 37
e 25 38
e 25 55
e 25 59
e 26 27
e 26 29
e 26 31
e 26 34
e 26 42
e 26 43
e 26 44
e 26 50
e 26 64
e 26 71
e 26 85
e 26 94
e 26 99
e 26 100
e 26 101
e 27 42
e 27 43
e 27 99
e 27 100
e 27 101
e 28 32
e 28 52
e 28 53
e 28 62
e 28 63
e 28 83
e 28 84
e 29 30
e 29 31
e 29 33
e 29 34
e 29 35
e 29 37
e 29 38
e 29 44
e 29 50
e 29 55
e 29 59
e 29 64
e 29 71
e 29 85
e 29 94
e 30 33
e 30 35
e 30 37
e 30 38
e 30 55
e 30 59
e 30 61
e 30 77
e 30 81
e 30 84
e 30 89
e 30 91
e 31 32
e 31 34
e 31 44
e 31 47
e 31 49
e 31 50
e 31 64
e 31 71
e 31 80
e 31 85
e 31 92
e 31 94
e 32 47
e 32 49
e 32 80
e 32 92
e 33 35
e 33 37
e 33 38
e 33 42
e 33 55
e 33 59
e 33 60
e 33 63
e 33 74
e 33 93
e 33 95
e 34 36
e 34 44
e 34 50
e 34 56
e 34 58
e 34 64
e 34 65
e 34 71
e 34 85
e 34 94
e 34 98
e 35 37
e 35 38
e 35 55
e 35 57
e 35 59
e 35 82
e 35 87
e 35 97
e 35 98
e 36 38
e 36 48
e 36 49
e 36 56
e 36 58
e 36 65
e 36 67
e 36 98
e 37 38
e 37 41
e 37 51
e 37 52
e 37 55
e 37 56
e 37 59
e 37 69
e 37 73
e 37 90
e 37 96
e 37 100
e 38 48
e 38 49
e 38 55
e 38 59
e 38 67
e 39 40
e 39 44
e 39 45
e 39 62
e 39 75
e 39 76
e 39 77
e 39 80
e 39 86
e 39 88
e 39 96
e 39 97
e 39 99
e 40 44
e 40 47
e 40 54
e 40 55
e 40 65
e 40 70
e 40 77
e 40 78
e 40 96
e 40 97
e 41 45
e 41 48
e 41 51
e 41 52
e 41 56
e 41 69
e 41 73
e 41 90
e 41 94
e 41 95
e 41 96
e 41 100
e 42 43
e 42 60
e 42 63
e 42 74
e 42 93
e 42 95
e 42 99
e 42 100
e 42 101
e 43 46
e 43 53
e 43 59
e 43 68
e 43 99
e 43 100
e 43 101
e 44 50
e 44 64
e 44 71
e 44 77
e 44 85
e 44 94
e 44 96
e 44 97
e 45 48
e 45 62
e 45 75
e 45 76
e 45 80
e 45 86
e 45 88
e 45 94
e 45 95
e 45 99
e 46 53
e 46 54
e 46 57
e 46 59
e 46 68
e 46 71
e 46 72
e 46 73
e 46 74
e 46 88
e 46 89
e 47 49
e 47 54
e 47 55
e 47 65
e 47 70
e 47 78
e 47 80
e 47 92
e 48 49
e 48 67
e 48 94
e 48 95
e 49 67
e 49 80
e 49 92
e 50 51
e 50 64
e 50 71
e 50 75
e 50 78
e 50 79
e 50 81
e 50 82
e 50 85
e 50 94
e 51 52
e 51 56
e 51 69
e 51 73
e 51 75
e 51 78
e 51 79
e 51 81
e 51 82
e 51 90
e 51 96
e 51 100
e 52 53
e 52 56
e 52 62
e 52 63
e 52 69
e 52 73
e 52 83
e 52 84
e 52 90
e 52 96
e 52 100
e 53 59
e 53 62
e 53 63
e 53 68
e 53 83
e 53 84
e 54 55
e 54 57
e 54 65
e 54 70
e 54 71
e 54 72
e 54 73
e 54 74
e 54 78
e 54 88
e 54 89
e 55 59
e 55 65
e 55 70
e 55 78
e 56 58
e 56 65
e 56 69
e 56 73
e 56 90
e 56 96
e 56 98
e 56 100
e 57 71
e 57 72
e 57 73
e 57 74
e 57 82
e 57 87
e 57 88
e 57 89
e 57 97
e 57 98
e 58 65
e 58 66
e 58 72
e 58 79
e 58 83
e 58 92
e 58 98
e 58 101
e 59 68
e 60 61
e 60 63
e 60 64
e 60 66
e 60 67
e 60 68
e 60 74
e 60 76
e 60 93
e 60 95
e 61 64
e 61 66
e 61 67
e 61 68
e 61 76
e 61 77
e 61 81
e 61 84
e 61 89
e 61 91
e 62 63
e 62 75
e 62 76
e 62 80
e 62 83
e 62 84
e 62 86
e 62 88
e 62 99
e 63 74
e 63 83
e 63 84
e 63 93
e 63 95
e 64 66
e 64 67
e 64 68
e 64 71
e 64 76
e 64 85
e 64 94
e 65 70
e 65 78
e 65 98
e 66 67
e 66 68
e 66 72
e 66 76
e 66 79
e 66 83
e 66 92
e 66 101
e 67 68
e 67 76
e 68 76
e 69 70
e 69 73
e 69 87
e 69 90
e 69 96
e 69 100
e 70 78
e 70 87
e 71 72
e 71 73
e 71 74
e 71 85
e 71 88
e 71 89
e 71 94
e 72 73
e 72 74
e 72 79
e 72 83
e 72 88
e 72 89
e 72 92
e 72 101
e 73 74
e 73 88
e 73 89
e 73 90
e 73 96
e 73 100
e 74 88
e 74 89
e 74 93
e 74 95
e 75 76
e 75 78
e 75 79
e 75 80
e 75 81
e 75 82
e 75 86
e 75 88
e 75 99
e 76 80
e 76 86
e 76 88
e 76 99
e 77 81
e 77 84
e 77 89
e 77 91
e 77 96
e 77 97
e 78 79
e 78 81
e 78 82
e 79 81
e 79 82
e 79 83
e 79 92
e 79 101
e 80 86
e 80 88
e 80 92
e 80 99
e 81 82
e 81 84
e 81 89
e 81 91
e 82 87
e 82 97
e 82 98
e 83 84
e 83 92
e 83 101
e 84 89
e 84 91
e 85 86
e 85 90
e 85 91
e 85 93
e 85 94
e 86 88
e 86 90
e 86 91
e 86 93
e 86 99
e 87 97
e 87 98
e 88 89
e 88 99
e 89 91
e 90 91
e 90 93
e 90 96
e 90 100
e 91 93
e 92 101
e 93 95
e 94 95
e 96 97
e 96 100
e 97 98
e 99 100
e 99 101
e 100 101
